&CONTROL
   calculation      = 'scf'
   restart_mode     = 'from_scratch'
   prefix           = 'Al100_bc2'
   disk_io          = 'low'
   pseudo_dir       = '/content/q-e/pseudo/'
/
&SYSTEM
   ibrav            = 0
   ecutwfc          = 20
   ecutrho          = 160
   occupations      = 'smearing'
   degauss          = 0.03
   smearing         = 'mp'
   assume_isolated  = 'esm'
   esm_bc           = 'bc1'
   ntyp             = 1
   nat              = 2
/
&ELECTRONS
   mixing_beta      = 0.3
/
&IONS
/
&CELL
/
&FCP
/
&RISM
/

ATOMIC_SPECIES
Al 26.9815385 Al.pbe-n-van.UPF

K_POINTS automatic
16 16 1  1 1 0

CELL_PARAMETERS angstrom
2.86378246380552 0.00000000000000 0.00000000000000
0.00000000000000 2.86378246380552 0.00000000000000
0.00000000000000 0.00000000000000 20.02500000000000

ATOMIC_POSITIONS angstrom
Al 1.4318912319 1.4318912319 8.0000000000 
Al 0.0000000000 0.0000000000 10.0250000000 

